0 109 173
1 72 182
2 186 187
3 181 188
4 178 189
5 100 193
6 133 194
7 165 194
8 87 194
9 194 194
10 172 193
11 191 193
12 166 191
13 186 189
14 137 189
15 177 190
16 174 189
17 173 188
18 186 187
19 156 186
20 70 184
21 75 184
22 124 183
23 180 184
24 169 183
25 178 184
26 173 184
27 183 183
28 62 182
29 168 186
30 185 193
31 196 197
32 156 196
33 182 195
34 175 194
35 192 193
36 188 191
37 190 191
38 124 191
39 128 190
40 171 190
41 111 189
42 173 188
43 152 186
44 178 185
45 174 184
46 181 183
47 161 182
48 149 181
49 173 179
50 153 178
51 178 178
52 172 180
53 79 179
54 156 177
55 174 176
56 174 174
57 173 173
58 112 172
59 171 172
60 171 171
61 165 170
62 161 169
63 163 167
64 165 167
65 165 168
66 155 167
67 121 167
68 155 166
69 130 165
70 152 163
71 129 163
72 129 161
73 132 160
74 146 157
75 152 154
76 11 152
77 144 152
78 149 153
79 138 153
80 138 156
81 71 156
82 128 155
83 144 155
84 154 154
85 149 153
86 145 153
87 134 152
88 147 149
89 105 147
90 142 144
91 144 145
92 141 143
93 138 142
94 98 141
95 129 141
96 119 141
97 140 141
98 131 140
99 135 139
100 58 140
101 108 138
102 130 136
103 110 134
104 125 131
105 128 129
106 121 128
107 126 127
108 103 126
109 125 125
110 122 124
111 57 124
112 113 122
113 59 122
114 118 123
115 45 124
116 110 123
117 99 126
118 78 126
119 125 126
120 31 126
121 58 127
122 127 130
123 117 129
124 55 129
125 59 129
126 123 129
127 119 128
128 123 126
129 91 125
130 124 125
131 113 125
132 78 125
133 63 123
134 59 123
135 9 123
136 108 123
137 66 124
138 92 125
139 102 124
140 119 124
141 93 124
142 111 125
143 61 124
144 119 122
145 60 121
146 120 120
147 102 118
148 117 117
149 95 117
150 106 117
151 105 117
152 55 116
153 61 114
154 43 114
155 46 113
156 107 115
157 78 117
158 96 117
159 84 117
160 107 115
161 88 114
162 25 113
163 108 113
164 7 114
165 89 113
166 99 112
167 105 111
168 107 109
169 91 108
170 107 108
171 102 108
172 93 108
173 92 109
174 102 108
175 99 106
176 101 105
177 86 102
178 92 99
179 96 98
180 63 96
181 72 95
182 61 96
183 65 95
184 86 96
185 92 94
186 67 92
187 80 91
188 58 91
189 90 96
190 19 93
191 47 93
192 83 91
193 20 88
194 78 86
195 42 86
196 59 85
197 58 84
198 9 82
199 40 84
200 26 86
201 30 87
202 13 88
203 63 90
204 90 90
205 24 90
206 84 90
207 74 89
208 85 89
209 82 87
210 85 87
211 23 86
212 70 86
213 83 85
214 53 83
215 75 80
216 76 81
217 10 80
218 26 79
219 77 83
220 16 82
221 26 81
222 77 79
223 34 79
224 73 78
225 4 76
226 53 75
227 19 75
228 67 73
229 48 72
230 47 72
231 69 73
232 54 73
233 24 72
234 21 72
235 28 71
236 57 70
237 66 69
238 48 69
239 9 68
240 58 69
241 59 69
242 16 68
243 59 66
244 24 64
245 43 63
246 27 61
247 26 59
248 27 56
249 50 52
250 47 49
251 35 47
252 40 44
253 40 43
254 34 41
255 33 39
256 23 38
257 31 37
258 31 36
259 22 37
260 31 39
261 32 36
262 28 34
263 27 31
264 30 30
265 5 28
266 17 29
267 21 27
268 15 24
269 23 26
270 9 25
271 23 24
272 13 24
273 22 23
274 11 22
275 22 22
276 14 20
277 9 21
278 3 18
279 4 19
280 14 19
281 15 17
282 11 16
283 12 14
284 6 12
285 11 12
286 6 10
287 3 8
288 4 8
289 5 6
290 2 6
291 1 5
292 4 5
293 5 5
294 4 4
295 2 3
296 1 2
297 1 2

